NAME : random_8
COMMENT : 40 random nodes
TYPE : TSP
DIMENSION : 40
EDGE_WEIGHT_TYPE : EUC_2D
NODE_COORD_SECTION
1 509 244
2 815 543
3 782 128
4 915 385
5 512 428
6 280 502
7 168 706
8 800 302
9 649 959
10 433 969
11 125 110
12 288 983
13 17 724
14 167 118
15 409 216
16 823 236
17 55 478
18 928 188
19 362 97
20 306 413
21 923 151
22 653 290
23 294 375
24 479 90
25 530 922
26 456 997
27 571 507
28 949 627
29 955 173
30 451 874
31 940 183
32 828 384
33 877 643
34 590 683
35 946 343
36 162 928
37 292 738
38 679 182
39 807 397
40 748 308
EOF